networks/zoo_22_88/zoo_22_88.sol
<?xml version = "1.0" encoding="UTF-8" standalone="yes"?>
<CPLEXSolution version="1.2">
 <header
   problemName="networks/zoo_22_88/zoo_22_88.lp"
   solutionName="incumbent"
   solutionIndex="-1"
   objectiveValue="19"
   solutionTypeValue="3"
   solutionTypeString="primal"
   solutionStatusValue="101"
   solutionStatusString="integer optimal solution"
   solutionMethodString="mip"
   primalFeasible="1"
   dualFeasible="1"
   MIPNodes="0"
   MIPIterations="823"
   writeLevel="3"/>
 <quality
   epInt="1.0000000000000001e-05"
   epRHS="9.9999999999999995e-07"
   maxIntInfeas="0"
   maxPrimalInfeas="0"
   maxX="3"
   maxSlack="9"/>
 <variables>
  <variable name="Y(9,5)" index="180" value="1"/>
  <variable name="Y(13,6)" index="269" value="1"/>
  <variable name="Y(15,8)" index="315" value="1"/>
  <variable name="Y(22,1)" index="462" value="1"/>
  <variable name="Y(26,11)" index="560" value="1"/>
  <variable name="Y(29,8)" index="623" value="1"/>
  <variable name="Y(32,9)" index="690" value="1"/>
  <variable name="Y(38,6)" index="819" value="1"/>
  <variable name="Y(42,11)" index="912" value="1"/>
  <variable name="Y(49,1)" index="1056" value="1"/>
  <variable name="Y(50,2)" index="1079" value="1"/>
  <variable name="Y(52,4)" index="1125" value="1"/>
  <variable name="Y(57,10)" index="1241" value="1"/>
  <variable name="Y(60,9)" index="1306" value="1"/>
  <variable name="Y(67,3)" index="1454" value="1"/>
  <variable name="Y(76,5)" index="1654" value="1"/>
  <variable name="Y(77,7)" index="1678" value="1"/>
  <variable name="Y(78,10)" index="1703" value="1"/>
  <variable name="Y(87,9)" index="1900" value="1"/>
  <variable name="X(1,3,67)" index="2002" value="1"/>
  <variable name="X(1,5,9)" index="2032" value="1"/>
  <variable name="X(1,8,22)" index="2133" value="1"/>
  <variable name="X(1,12,49)" index="2248" value="1"/>
  <variable name="X(2,7,13)" index="2300" value="1"/>
  <variable name="X(2,11,15)" index="2390" value="1"/>
  <variable name="X(2,13,50)" index="2513" value="1"/>
  <variable name="X(3,1,22)" index="2573" value="1"/>
  <variable name="X(3,14,67)" index="2706" value="1"/>
  <variable name="X(4,5,26)" index="2753" value="1"/>
  <variable name="X(4,9,32)" index="2847" value="1"/>
  <variable name="X(4,15,52)" index="2955" value="1"/>
  <variable name="X(5,1,67)" index="3058" value="1"/>
  <variable name="X(5,4,52)" index="3131" value="1"/>
  <variable name="X(5,6,38)" index="3205" value="1"/>
  <variable name="X(5,9,87)" index="3342" value="1"/>
  <variable name="X(5,10,9)" index="3352" value="1"/>
  <variable name="X(5,11,26)" index="3457" value="1"/>
  <variable name="X(5,16,76)" index="3595" value="1"/>
  <variable name="X(6,5,52)" index="3659" value="1"/>
  <variable name="X(6,7,38)" index="3733" value="1"/>
  <variable name="X(6,17,13)" index="3796" value="1"/>
  <variable name="X(7,2,50)" index="3921" value="1"/>
  <variable name="X(7,6,13)" index="3972" value="1"/>
  <variable name="X(7,8,49)" index="4096" value="1"/>
  <variable name="X(7,11,57)" index="4192" value="1"/>
  <variable name="X(7,18,77)" index="4300" value="1"/>
  <variable name="X(8,1,49)" index="4360" value="1"/>
  <variable name="X(8,7,29)" index="4428" value="1"/>
  <variable name="X(8,9,60)" index="4547" value="1"/>
  <variable name="X(8,19,15)" index="4590" value="1"/>
  <variable name="X(9,4,60)" index="4723" value="1"/>
  <variable name="X(9,5,67)" index="4818" value="1"/>
  <variable name="X(9,8,29)" index="4868" value="1"/>
  <variable name="X(9,10,32)" index="4959" value="1"/>
  <variable name="X(9,20,87)" index="5102" value="1"/>
  <variable name="X(10,5,76)" index="5179" value="1"/>
  <variable name="X(10,9,78)" index="5269" value="1"/>
  <variable name="X(10,11,77)" index="5356" value="1"/>
  <variable name="X(10,21,57)" index="5424" value="1"/>
  <variable name="X(11,2,26)" index="5481" value="1"/>
  <variable name="X(11,5,87)" index="5630" value="1"/>
  <variable name="X(11,7,77)" index="5708" value="1"/>
  <variable name="X(11,8,15)" index="5734" value="1"/>
  <variable name="X(11,10,57)" index="5864" value="1"/>
  <variable name="X(11,22,42)" index="5937" value="1"/>
  <variable name="C(9,5)" index="6007" value="1"/>
  <variable name="C(13,7)" index="6021" value="1"/>
  <variable name="C(13,6)" index="6022" value="2"/>
  <variable name="C(15,11)" index="6026" value="1"/>
  <variable name="C(15,8)" index="6027" value="2"/>
  <variable name="C(22,1)" index="6050" value="1"/>
  <variable name="C(26,5)" index="6065" value="1"/>
  <variable name="C(26,11)" index="6066" value="2"/>
  <variable name="C(29,8)" index="6075" value="1"/>
  <variable name="C(32,9)" index="6083" value="1"/>
  <variable name="C(38,6)" index="6098" value="1"/>
  <variable name="C(49,8)" index="6126" value="1"/>
  <variable name="C(49,1)" index="6127" value="2"/>
  <variable name="C(50,2)" index="6129" value="1"/>
  <variable name="C(52,5)" index="6136" value="1"/>
  <variable name="C(52,4)" index="6137" value="2"/>
  <variable name="C(57,11)" index="6149" value="1"/>
  <variable name="C(57,10)" index="6150" value="2"/>
  <variable name="C(60,9)" index="6157" value="1"/>
  <variable name="C(67,5)" index="6177" value="1"/>
  <variable name="C(67,1)" index="6178" value="2"/>
  <variable name="C(67,3)" index="6179" value="3"/>
  <variable name="C(76,5)" index="6201" value="1"/>
  <variable name="C(77,11)" index="6203" value="1"/>
  <variable name="C(77,7)" index="6204" value="2"/>
  <variable name="C(87,5)" index="6229" value="1"/>
  <variable name="C(87,9)" index="6230" value="2"/>
 </variables>
</CPLEXSolution>
